\ Model QCP
\ LP format - for model browsing. Use MPS format to capture full model detail.
Minimize
  z + 4 y
Subject To
 Cut_0: z + [ 1.027522935779815 y ^2 ] >= 1653.220183486238
 Cut_1: z + [ 0.264 y ^2 ] >= 1306.6
 Cut_2: z + [ ] >= 1168
Bounds
 1168 <= z <= 2229
 12.12435565298214 <= y <= 22.9128784747792
End
